sat
(
  (define-fun C2_VM2 () Int
    1)
  (define-fun PriceProv2 () Int
    210)
  (define-fun C1_VM3 () Int
    0)
  (define-fun PriceProv6 () Int
    210)
  (define-fun StorageProv5 () Int
    2000)
  (define-fun C2_VM3 () Int
    0)
  (define-fun C5_VM1 () Int
    1)
  (define-fun MemProv6 () Int
    7500)
  (define-fun VM1Type () Int
    136)
  (define-fun C4_VM1 () Int
    0)
  (define-fun C4_VM2 () Int
    0)
  (define-fun C1_VM4 () Int
    0)
  (define-fun C1_VM6 () Int
    0)
  (define-fun C4_VM6 () Int
    0)
  (define-fun StorageProv3 () Int
    2000)
  (define-fun StorageProv4 () Int
    24001)
  (define-fun PriceProv4 () Int
    0)
  (define-fun C3_VM6 () Int
    0)
  (define-fun C5_VM3 () Int
    0)
  (define-fun C3_VM3 () Int
    0)
  (define-fun PriceProv1 () Int
    460)
  (define-fun PriceProv3 () Int
    532)
  (define-fun C5_VM6 () Int
    1)
  (define-fun VM5Type () Int
    182)
  (define-fun ProcProv5 () Int
    4)
  (define-fun VM2Type () Int
    182)
  (define-fun StorageProv6 () Int
    2000)
  (define-fun C1_VM2 () Int
    0)
  (define-fun C4_VM3 () Int
    1)
  (define-fun ProcProv6 () Int
    4)
  (define-fun PriceProv5 () Int
    210)
  (define-fun C3_VM1 () Int
    1)
  (define-fun StorageProv1 () Int
    2000)
  (define-fun VM4Type () Int
    0)
  (define-fun ProcProv3 () Int
    8)
  (define-fun C2_VM5 () Int
    0)
  (define-fun ProcProv1 () Int
    8)
  (define-fun C5_VM4 () Int
    0)
  (define-fun C2_VM6 () Int
    1)
  (define-fun C3_VM5 () Int
    0)
  (define-fun MemProv2 () Int
    7500)
  (define-fun ProcProv4 () Int
    18)
  (define-fun MemProv5 () Int
    7500)
  (define-fun C3_VM2 () Int
    0)
  (define-fun C2_VM4 () Int
    0)
  (define-fun VM3Type () Int
    134)
  (define-fun C5_VM2 () Int
    1)
  (define-fun C5_VM5 () Int
    0)
  (define-fun C2_VM1 () Int
    0)
  (define-fun StorageProv2 () Int
    2000)
  (define-fun VM6Type () Int
    182)
  (define-fun MemProv1 () Int
    15000)
  (define-fun C3_VM4 () Int
    0)
  (define-fun C4_VM5 () Int
    0)
  (define-fun MemProv4 () Int
    256001)
  (define-fun C1_VM5 () Int
    1)
  (define-fun ProcProv2 () Int
    4)
  (define-fun MemProv3 () Int
    30000)
  (define-fun C4_VM4 () Int
    0)
  (define-fun C1_VM1 () Int
    0)
)
(objectives
 ( 13)
 ((+ 0 PriceProv1 PriceProv2 PriceProv3 PriceProv4 PriceProv5 PriceProv6) 1622)
)
(:added-eqs                   161704
 :arith-eq-adapter            41002
 :arith-bound-propagations-lp 75761
 :arith-conflicts             36
 :arith-diseq                 397124
 :arith-fixed-eqs             1969
 :arith-lower                 642064
 :arith-make-feasible         37870
 :arith-max-columns           350
 :arith-max-rows              20
 :arith-upper                 176234
 :binary-propagations         708264
 :bv-bit2core                 11125
 :bv-dynamic-diseqs           413561
 :bv->core-eq                 810
 :conflicts                   3029
 :decisions                   92465
 :del-clause                  518691
 :final-checks                68
 :max-memory                  80.28
 :memory                      78.24
 :minimized-lits              44209
 :mk-bool-var                 84365
 :mk-clause                   519005
 :mk-clause-binary            6672
 :num-allocs                  1298101552
 :num-checks                  69
 :pb-conflicts                147
 :pb-predicates               90
 :pb-propagations             9091
 :pb-resolves                 140
 :propagations                2191609
 :restarts                    20
 :rlimit-count                13333720
 :solve-eqs-elim-vars         1
 :solve-eqs-steps             10
 :time                        1.05
 :total-time                  1.06)
